WARNING: for repeatability, setting FPU to use double precision
============================[ Problem Statistics ]=============================
|                                                                             |
|  Number of variables:           100                                         |
|  Number of clauses:             449                                         |
|  Parse time:                   0.00 s                                       |
|  Eliminated clauses:           0.00 Mb                                      |
|  Simplification time:          0.00 s                                       |
|                                                                             |
============================[ Search Statistics ]==============================
| Conflicts |          ORIGINAL         |          LEARNT          | Progress |
|           |    Vars  Clauses Literals |    Limit  Clauses Lit/Cl |          |
===============================================================================
|       100 |      97      443     1350 |      162      100      7 |  0.010 % |
===============================================================================
restarts              : 3
conflicts             : 208            (64596 /sec)
decisions             : 269            (0.00 % random) (83540 /sec)
propagations          : 4743           (1472981 /sec)
conflict literals     : 1379           (17.08 % deleted)
Memory used           : 13.00 MB
CPU time              : 0.00322 s

SATISFIABLE
